Custom/2254257_22.param
$ LBS instance with n = 22, seed = 2254257
letting cards be [2,14,11,33,37,43,41,30,9,35,44,5,3,22,34,24,47,13,31,1,28,21]
